* SDPA sparse format data
* File name = Bst_bpk1.dat-s
* mDim =  34, nBlock = 12
* size of bVect = 1 *  34
* size of sparseMatrix =  375 * 5
 34
 12
-30  5  5  5  5  5  5  5  5  5  5  5 
   1.0000000000   -1.0000000000   -1.0000000000    0.0000000000    0.0000000000    0.0000000000   -1.0000000000    1.0000000000    0.0000000000    1.0000000000   -1.0000000000    0.0000000000    0.0000000000    0.0000000000    0.0000000000    0.0000000000    0.0000000000    0.0000000000    0.0000000000    0.0000000000    0.0000000000    0.0000000000    0.0000000000    0.0000000000    0.0000000000    0.0000000000    0.0000000000    0.0000000000    0.0000000000    0.0000000000    0.0000000000    0.0000000000    0.0000000000    0.0000000000 
  5   1   1   1    1.0000000000
  6   1   2   2    1.0000000000
  7   1   3   3    1.0000000000
  8   1   4   4    1.0000000000
  9   1   5   5    1.0000000000
 10   1   6   6    1.0000000000
 11   1   7   7    1.0000000000
 12   1   8   8    1.0000000000
 13   1   9   9    1.0000000000
 14   1  10  10    1.0000000000
 15   1  11  11    1.0000000000
 16   1  12  12    1.0000000000
 17   1  13  13    1.0000000000
 18   1  14  14    1.0000000000
 19   1  15  15    1.0000000000
 20   1  16  16    1.0000000000
 21   1  17  17    1.0000000000
 22   1  18  18    1.0000000000
 23   1  19  19    1.0000000000
 24   1  20  20    1.0000000000
 25   1  21  21    1.0000000000
 26   1  22  22    1.0000000000
 27   1  23  23    1.0000000000
 28   1  24  24    1.0000000000
 29   1  25  25    1.0000000000
 30   1  26  26    1.0000000000
 31   1  27  27    1.0000000000
 32   1  28  28    1.0000000000
 33   1  29  29    1.0000000000
 34   1  30  30    1.0000000000
  0   2   1   1   -1.0000000000
  1   2   1   2    1.0000000000
  2   2   1   3    1.0000000000
  3   2   1   4    1.0000000000
  4   2   1   5    1.0000000000
  5   2   2   2    1.0000000000
  6   2   2   3    1.0000000000
  7   2   2   4    1.0000000000
  8   2   2   5    1.0000000000
  9   2   3   3    1.0000000000
 10   2   3   4    1.0000000000
 11   2   3   5    1.0000000000
 12   2   4   4    1.0000000000
 13   2   4   5    1.0000000000
 14   2   5   5    1.0000000000
  0   3   1   1   -1.0000000000
  1   3   1   1   -0.1250000000
  2   3   1   1   -0.5000000000
  1   3   1   2    1.0000000000
  5   3   1   2   -0.1250000000
  6   3   1   2   -0.5000000000
  2   3   1   3    1.0000000000
  6   3   1   3   -0.1250000000
  9   3   1   3   -0.5000000000
  3   3   1   4    1.0000000000
  7   3   1   4   -0.1250000000
 10   3   1   4   -0.5000000000
  4   3   1   5    1.0000000000
  8   3   1   5   -0.1250000000
 11   3   1   5   -0.5000000000
  5   3   2   2    1.0000000000
 15   3   2   2   -0.1250000000
 16   3   2   2   -0.5000000000
  6   3   2   3    1.0000000000
 16   3   2   3   -0.1250000000
 19   3   2   3   -0.5000000000
  7   3   2   4    1.0000000000
 17   3   2   4   -0.1250000000
 20   3   2   4   -0.5000000000
  8   3   2   5    1.0000000000
 18   3   2   5   -0.1250000000
 21   3   2   5   -0.5000000000
  9   3   3   3    1.0000000000
 19   3   3   3   -0.1250000000
 25   3   3   3   -0.5000000000
 10   3   3   4    1.0000000000
 20   3   3   4   -0.1250000000
 26   3   3   4   -0.5000000000
 11   3   3   5    1.0000000000
 21   3   3   5   -0.1250000000
 27   3   3   5   -0.5000000000
 12   3   4   4    1.0000000000
 22   3   4   4   -0.1250000000
 28   3   4   4   -0.5000000000
 13   3   4   5    1.0000000000
 23   3   4   5   -0.1250000000
 29   3   4   5   -0.5000000000
 14   3   5   5    1.0000000000
 24   3   5   5   -0.1250000000
 30   3   5   5   -0.5000000000
  0   4   1   1   -1.0000000000
  1   4   1   1   -0.3333333333
  2   4   1   1   -0.0833333333
  1   4   1   2    1.0000000000
  5   4   1   2   -0.3333333333
  6   4   1   2   -0.0833333333
  2   4   1   3    1.0000000000
  6   4   1   3   -0.3333333333
  9   4   1   3   -0.0833333333
  3   4   1   4    1.0000000000
  7   4   1   4   -0.3333333333
 10   4   1   4   -0.0833333333
  4   4   1   5    1.0000000000
  8   4   1   5   -0.3333333333
 11   4   1   5   -0.0833333333
  5   4   2   2    1.0000000000
 15   4   2   2   -0.3333333333
 16   4   2   2   -0.0833333333
  6   4   2   3    1.0000000000
 16   4   2   3   -0.3333333333
 19   4   2   3   -0.0833333333
  7   4   2   4    1.0000000000
 17   4   2   4   -0.3333333333
 20   4   2   4   -0.0833333333
  8   4   2   5    1.0000000000
 18   4   2   5   -0.3333333333
 21   4   2   5   -0.0833333333
  9   4   3   3    1.0000000000
 19   4   3   3   -0.3333333333
 25   4   3   3   -0.0833333333
 10   4   3   4    1.0000000000
 20   4   3   4   -0.3333333333
 26   4   3   4   -0.0833333333
 11   4   3   5    1.0000000000
 21   4   3   5   -0.3333333333
 27   4   3   5   -0.0833333333
 12   4   4   4    1.0000000000
 22   4   4   4   -0.3333333333
 28   4   4   4   -0.0833333333
 13   4   4   5    1.0000000000
 23   4   4   5   -0.3333333333
 29   4   4   5   -0.0833333333
 14   4   5   5    1.0000000000
 24   4   5   5   -0.3333333333
 30   4   5   5   -0.0833333333
  0   5   1   1   -1.0000000000
  1   5   1   1   -0.2500000000
  2   5   1   1   -0.3333333333
  1   5   1   2    1.0000000000
  5   5   1   2   -0.2500000000
  6   5   1   2   -0.3333333333
  2   5   1   3    1.0000000000
  6   5   1   3   -0.2500000000
  9   5   1   3   -0.3333333333
  3   5   1   4    1.0000000000
  7   5   1   4   -0.2500000000
 10   5   1   4   -0.3333333333
  4   5   1   5    1.0000000000
  8   5   1   5   -0.2500000000
 11   5   1   5   -0.3333333333
  5   5   2   2    1.0000000000
 15   5   2   2   -0.2500000000
 16   5   2   2   -0.3333333333
  6   5   2   3    1.0000000000
 16   5   2   3   -0.2500000000
 19   5   2   3   -0.3333333333
  7   5   2   4    1.0000000000
 17   5   2   4   -0.2500000000
 20   5   2   4   -0.3333333333
  8   5   2   5    1.0000000000
 18   5   2   5   -0.2500000000
 21   5   2   5   -0.3333333333
  9   5   3   3    1.0000000000
 19   5   3   3   -0.2500000000
 25   5   3   3   -0.3333333333
 10   5   3   4    1.0000000000
 20   5   3   4   -0.2500000000
 26   5   3   4   -0.3333333333
 11   5   3   5    1.0000000000
 21   5   3   5   -0.2500000000
 27   5   3   5   -0.3333333333
 12   5   4   4    1.0000000000
 22   5   4   4   -0.2500000000
 28   5   4   4   -0.3333333333
 13   5   4   5    1.0000000000
 23   5   4   5   -0.2500000000
 29   5   4   5   -0.3333333333
 14   5   5   5    1.0000000000
 24   5   5   5   -0.2500000000
 30   5   5   5   -0.3333333333
  0   6   1   1   -1.0000000000
  3   6   1   1   -0.2500000000
  4   6   1   1   -0.1250000000
  1   6   1   2    1.0000000000
  7   6   1   2   -0.2500000000
  8   6   1   2   -0.1250000000
  2   6   1   3    1.0000000000
 10   6   1   3   -0.2500000000
 11   6   1   3   -0.1250000000
  3   6   1   4    1.0000000000
 12   6   1   4   -0.2500000000
 13   6   1   4   -0.1250000000
  4   6   1   5    1.0000000000
 13   6   1   5   -0.2500000000
 14   6   1   5   -0.1250000000
  5   6   2   2    1.0000000000
 17   6   2   2   -0.2500000000
 18   6   2   2   -0.1250000000
  6   6   2   3    1.0000000000
 20   6   2   3   -0.2500000000
 21   6   2   3   -0.1250000000
  7   6   2   4    1.0000000000
 22   6   2   4   -0.2500000000
 23   6   2   4   -0.1250000000
  8   6   2   5    1.0000000000
 23   6   2   5   -0.2500000000
 24   6   2   5   -0.1250000000
  9   6   3   3    1.0000000000
 26   6   3   3   -0.2500000000
 27   6   3   3   -0.1250000000
 10   6   3   4    1.0000000000
 28   6   3   4   -0.2500000000
 29   6   3   4   -0.1250000000
 11   6   3   5    1.0000000000
 29   6   3   5   -0.2500000000
 30   6   3   5   -0.1250000000
 12   6   4   4    1.0000000000
 31   6   4   4   -0.2500000000
 32   6   4   4   -0.1250000000
 13   6   4   5    1.0000000000
 32   6   4   5   -0.2500000000
 33   6   4   5   -0.1250000000
 14   6   5   5    1.0000000000
 33   6   5   5   -0.2500000000
 34   6   5   5   -0.1250000000
  0   7   1   1   -1.0000000000
  3   7   1   1   -0.1250000000
  4   7   1   1   -0.2500000000
  1   7   1   2    1.0000000000
  7   7   1   2   -0.1250000000
  8   7   1   2   -0.2500000000
  2   7   1   3    1.0000000000
 10   7   1   3   -0.1250000000
 11   7   1   3   -0.2500000000
  3   7   1   4    1.0000000000
 12   7   1   4   -0.1250000000
 13   7   1   4   -0.2500000000
  4   7   1   5    1.0000000000
 13   7   1   5   -0.1250000000
 14   7   1   5   -0.2500000000
  5   7   2   2    1.0000000000
 17   7   2   2   -0.1250000000
 18   7   2   2   -0.2500000000
  6   7   2   3    1.0000000000
 20   7   2   3   -0.1250000000
 21   7   2   3   -0.2500000000
  7   7   2   4    1.0000000000
 22   7   2   4   -0.1250000000
 23   7   2   4   -0.2500000000
  8   7   2   5    1.0000000000
 23   7   2   5   -0.1250000000
 24   7   2   5   -0.2500000000
  9   7   3   3    1.0000000000
 26   7   3   3   -0.1250000000
 27   7   3   3   -0.2500000000
 10   7   3   4    1.0000000000
 28   7   3   4   -0.1250000000
 29   7   3   4   -0.2500000000
 11   7   3   5    1.0000000000
 29   7   3   5   -0.1250000000
 30   7   3   5   -0.2500000000
 12   7   4   4    1.0000000000
 31   7   4   4   -0.1250000000
 32   7   4   4   -0.2500000000
 13   7   4   5    1.0000000000
 32   7   4   5   -0.1250000000
 33   7   4   5   -0.2500000000
 14   7   5   5    1.0000000000
 33   7   5   5   -0.1250000000
 34   7   5   5   -0.2500000000
  0   8   1   1   -1.0000000000
  3   8   1   1   -0.2000000000
  4   8   1   1   -0.2000000000
  1   8   1   2    1.0000000000
  7   8   1   2   -0.2000000000
  8   8   1   2   -0.2000000000
  2   8   1   3    1.0000000000
 10   8   1   3   -0.2000000000
 11   8   1   3   -0.2000000000
  3   8   1   4    1.0000000000
 12   8   1   4   -0.2000000000
 13   8   1   4   -0.2000000000
  4   8   1   5    1.0000000000
 13   8   1   5   -0.2000000000
 14   8   1   5   -0.2000000000
  5   8   2   2    1.0000000000
 17   8   2   2   -0.2000000000
 18   8   2   2   -0.2000000000
  6   8   2   3    1.0000000000
 20   8   2   3   -0.2000000000
 21   8   2   3   -0.2000000000
  7   8   2   4    1.0000000000
 22   8   2   4   -0.2000000000
 23   8   2   4   -0.2000000000
  8   8   2   5    1.0000000000
 23   8   2   5   -0.2000000000
 24   8   2   5   -0.2000000000
  9   8   3   3    1.0000000000
 26   8   3   3   -0.2000000000
 27   8   3   3   -0.2000000000
 10   8   3   4    1.0000000000
 28   8   3   4   -0.2000000000
 29   8   3   4   -0.2000000000
 11   8   3   5    1.0000000000
 29   8   3   5   -0.2000000000
 30   8   3   5   -0.2000000000
 12   8   4   4    1.0000000000
 31   8   4   4   -0.2000000000
 32   8   4   4   -0.2000000000
 13   8   4   5    1.0000000000
 32   8   4   5   -0.2000000000
 33   8   4   5   -0.2000000000
 14   8   5   5    1.0000000000
 33   8   5   5   -0.2000000000
 34   8   5   5   -0.2000000000
  1   9   1   1    1.0000000000
  5   9   1   2    1.0000000000
  6   9   1   3    1.0000000000
  7   9   1   4    1.0000000000
  8   9   1   5    1.0000000000
 15   9   2   2    1.0000000000
 16   9   2   3    1.0000000000
 17   9   2   4    1.0000000000
 18   9   2   5    1.0000000000
 19   9   3   3    1.0000000000
 20   9   3   4    1.0000000000
 21   9   3   5    1.0000000000
 22   9   4   4    1.0000000000
 23   9   4   5    1.0000000000
 24   9   5   5    1.0000000000
  2  10   1   1    1.0000000000
  6  10   1   2    1.0000000000
  9  10   1   3    1.0000000000
 10  10   1   4    1.0000000000
 11  10   1   5    1.0000000000
 16  10   2   2    1.0000000000
 19  10   2   3    1.0000000000
 20  10   2   4    1.0000000000
 21  10   2   5    1.0000000000
 25  10   3   3    1.0000000000
 26  10   3   4    1.0000000000
 27  10   3   5    1.0000000000
 28  10   4   4    1.0000000000
 29  10   4   5    1.0000000000
 30  10   5   5    1.0000000000
  3  11   1   1    1.0000000000
  7  11   1   2    1.0000000000
 10  11   1   3    1.0000000000
 12  11   1   4    1.0000000000
 13  11   1   5    1.0000000000
 17  11   2   2    1.0000000000
 20  11   2   3    1.0000000000
 22  11   2   4    1.0000000000
 23  11   2   5    1.0000000000
 26  11   3   3    1.0000000000
 28  11   3   4    1.0000000000
 29  11   3   5    1.0000000000
 31  11   4   4    1.0000000000
 32  11   4   5    1.0000000000
 33  11   5   5    1.0000000000
  4  12   1   1    1.0000000000
  8  12   1   2    1.0000000000
 11  12   1   3    1.0000000000
 13  12   1   4    1.0000000000
 14  12   1   5    1.0000000000
 18  12   2   2    1.0000000000
 21  12   2   3    1.0000000000
 23  12   2   4    1.0000000000
 24  12   2   5    1.0000000000
 27  12   3   3    1.0000000000
 29  12   3   4    1.0000000000
 30  12   3   5    1.0000000000
 32  12   4   4    1.0000000000
 33  12   4   5    1.0000000000
 34  12   5   5    1.0000000000
